c   #vars: 46   #clauses: 190   #literals: 549
c 
p cnf 46 190
-1 -2 0
12 13 26 -43 0
-4 -5 0
-6 -7 0
-8 -9 0
-10 -11 0
-12 -13 0
-14 -15 0
-16 -17 0
-18 -19 0
-20 -21 0
-22 -23 0
-24 -25 0
27 -35 36 37 0
28 41 42 -45 0
18 19 -20 39 0
-29 -30 0
-31 -32 0
1 2 43 44 0
3 -18 27 -35 0
-16 -36 -37 38 0
3 -18 45 46 0
-34 -35 0
-36 -37 0
-12 -13 -29 33 0
-6 8 9 40 0
14 15 -31 38 0
-41 -42 0
22 23 45 46 0
-43 -44 0
-31 -36 -37 38 0
-45 -46 0
-1 -18 0
-2 -19 0
31 32 36 37 0
-1 -29 0
-2 -30 0
16 17 29 30 0
-1 -43 0
-2 -44 0
4 5 24 25 0
-1 -45 0
-2 -46 0
29 30 41 42 0
16 17 -31 38 0
-14 16 17 38 0
18 19 45 46 0
-6 12 13 26 0
-3 -19 0
31 32 43 44 0
6 7 26 -43 0
-6 28 41 42 0
6 7 -12 26 0
-3 -46 0
-4 -22 0
-5 -23 0
12 13 43 44 0
-4 -24 0
-5 -25 0
3 -27 45 46 0
-4 -29 0
-5 -30 0
16 17 45 46 0
-5 -40 0
12 13 34 35 0
-6 -20 0
-7 -21 0
3 27 -37 -45 0
-3 27 36 37 0
-7 -26 0
10 11 22 23 0
-10 18 19 39 0
-7 -28 0
3 18 19 -45 0
-7 -33 0
14 15 36 37 0
-7 -40 0
-8 -18 0
-9 -19 0
4 5 29 30 0
-8 -34 0
-9 -35 0
-4 6 7 40 0
-9 -40 0
-6 26 43 44 0
-8 -41 0
-9 -42 0
14 15 -16 38 0
-10 -20 0
-11 -21 0
3 27 -35 -45 0
-10 -22 0
-11 -23 0
-10 -24 0
-11 -25 0
4 5 22 23 0
-4 8 9 40 0
-11 -39 0
22 23 41 42 0
27 34 35 -37 0
-13 -26 0
14 15 31 32 0
3 -18 27 -37 0
6 7 -29 33 0
8 9 34 35 0
3 18 19 -27 0
-13 -33 0
-12 -34 0
-13 -35 0
-12 -43 0
-13 -44 0
8 9 18 19 0
-14 -20 0
-15 -21 0
12 13 -29 33 0
-14 -31 0
-15 -32 0
1 2 18 19 0
-14 -36 0
-15 -37 0
-12 29 30 33 0
-15 -38 0
6 7 -8 40 0
-14 -41 0
-15 -42 0
1 2 45 46 0
-16 -24 0
-17 -25 0
-12 -13 33 0
-16 -29 0
-17 -30 0
14 15 41 42 0
-6 29 30 33 0
-17 -38 0
-12 26 43 44 0
-16 -45 0
-17 -46 0
-6 12 13 33 0
4 5 -8 40 0
-19 -39 0
14 15 20 21 0
-18 -45 0
-19 -46 0
-20 -36 0
-21 -37 0
-18 20 21 39 0
4 5 -6 40 0
-21 -39 0
10 11 24 25 0
24 25 34 35 0
-22 -41 0
-23 -42 0
16 17 24 25 0
-22 -45 0
-23 -46 0
-24 -34 0
-25 -35 0
-24 -43 0
-25 -44 0
-16 31 32 38 0
-3 27 34 35 0
-26 -44 0
-14 -36 -37 38 0
-27 -34 0
6 7 28 -45 0
24 25 43 44 0
-27 -36 0
6 7 28 -41 0
10 11 20 21 0
10 11 -20 39 0
-28 -42 0
1 2 29 30 0
10 11 -18 39 0
-28 -46 0
-6 28 45 46 0
-30 -33 0
20 21 36 37 0
-29 -41 0
-30 -42 0
-14 31 32 38 0
-31 -36 0
-32 -37 0
8 9 41 42 0
28 -41 45 46 0
-32 -38 0
-10 20 21 39 0
-31 -43 0
-32 -44 0
6 7 20 21 0
6 7 -12 33 0
